id: 1794
name: rail4284
group: mittelmann/rail
method: 2

Gurobi 7.0.2 (linux64, Matlab) logging started Fri 13 Apr 2018 15:22:52 BST


Gurobi 7.0.2 (linux64) logging started Fri Apr 13 15:22:52 2018

Optimize a model with 4284 rows, 1092610 columns and 11279748 nonzeros
Coefficient statistics:
  Matrix range     [1e+00, 1e+00]
  Objective range  [1e+00, 2e+00]
  Bounds range     [0e+00, 0e+00]
  RHS range        [1e+00, 1e+00]
Presolve removed 108 rows and 2084 columns
Presolve time: 3.04s
Presolved: 4176 rows, 1090526 columns, 11174639 nonzeros

Ordering time: 0.18s

Barrier statistics:
 AA' NZ     : 1.067e+06
 Factor NZ  : 5.533e+06 (roughly 500 MBytes of memory)
 Factor Ops : 1.069e+10 (less than 1 second per iteration)
 Threads    : 4

                  Objective                Residual
Iter       Primal          Dual         Primal    Dual     Compl     Time
   0   3.20002028e+06  2.00000000e+01  0.00e+00 0.00e+00  4.29e+00     5s
   1   4.49762849e+05 -1.62415009e+02  0.00e+00 3.27e-01  6.03e-01     5s
   2   6.12103377e+04 -1.03434731e+02  0.00e+00 1.60e-01  8.29e-02     6s
   3   2.16682541e+04  1.18809979e+01  0.00e+00 1.07e-01  2.89e-02     7s
   4   8.91300292e+03  4.54075051e+02  0.00e+00 1.73e-02  8.28e-03     7s
   5   5.49113262e+03  6.06080195e+02  0.00e+00 1.00e-02  4.59e-03     8s
   6   3.96798624e+03  7.13912348e+02  0.00e+00 7.01e-03  3.00e-03     8s
   7   3.20172552e+03  7.62142967e+02  0.00e+00 5.87e-03  2.23e-03     9s
   8   2.69971427e+03  8.08976399e+02  0.00e+00 4.87e-03  1.71e-03     9s
   9   2.37992141e+03  8.48470413e+02  0.00e+00 4.09e-03  1.37e-03    10s
  10   2.09171531e+03  8.80963903e+02  0.00e+00 3.46e-03  1.08e-03    10s
  11   1.81912345e+03  9.25550497e+02  0.00e+00 2.66e-03  7.87e-04    11s
  12   1.66051463e+03  9.62209104e+02  0.00e+00 1.93e-03  6.08e-04    11s
  13   1.51635189e+03  9.78121237e+02  0.00e+00 1.61e-03  4.66e-04    12s
  14   1.42538916e+03  9.90258324e+02  0.00e+00 1.38e-03  3.76e-04    12s
  15   1.41236354e+03  9.97449126e+02  0.00e+00 1.25e-03  3.56e-04    13s
  16   1.34140618e+03  1.00776388e+03  0.00e+00 1.07e-03  2.85e-04    13s
  17   1.28022617e+03  1.02162402e+03  0.00e+00 8.07e-04  2.20e-04    14s
  18   1.24708366e+03  1.02959145e+03  0.00e+00 6.59e-04  1.84e-04    14s
  19   1.21555323e+03  1.03151611e+03  0.00e+00 6.18e-04  1.56e-04    15s
  20   1.19796282e+03  1.03854908e+03  0.00e+00 4.68e-04  1.34e-04    15s
  21   1.16715343e+03  1.04190515e+03  0.00e+00 3.84e-04  1.05e-04    16s
  22   1.15556035e+03  1.04367682e+03  0.00e+00 3.43e-04  9.35e-05    17s
  23   1.14586596e+03  1.04538924e+03  0.00e+00 3.02e-04  8.38e-05    17s
  24   1.12184344e+03  1.04663020e+03  0.00e+00 2.69e-04  6.30e-05    18s
  25   1.11461664e+03  1.04760220e+03  0.00e+00 2.43e-04  5.61e-05    18s
  26   1.10032771e+03  1.04971782e+03  0.00e+00 1.86e-04  4.23e-05    19s
  27   1.08724668e+03  1.05070558e+03  0.00e+00 1.55e-04  3.06e-05    19s
  28   1.08539976e+03  1.05127219e+03  0.00e+00 1.38e-04  2.85e-05    20s
  29   1.08317787e+03  1.05166213e+03  0.00e+00 1.25e-04  2.63e-05    20s
  30   1.07980831e+03  1.05190391e+03  0.00e+00 1.17e-04  2.33e-05    21s
  31   1.07744480e+03  1.05217432e+03  0.00e+00 1.03e-04  2.11e-05    21s
  32   1.07297935e+03  1.05258925e+03  0.00e+00 8.26e-05  1.70e-05    22s
  33   1.07012501e+03  1.05313119e+03  0.00e+00 5.56e-05  1.41e-05    22s
  34   1.06396972e+03  1.05337484e+03  0.00e+00 4.28e-05  8.85e-06    23s
  35   1.06017761e+03  1.05353738e+03  0.00e+00 3.32e-05  5.58e-06    23s
  36   1.05927799e+03  1.05367564e+03  0.00e+00 2.50e-05  4.70e-06    24s
  37   1.05810697e+03  1.05374127e+03  0.00e+00 2.08e-05  3.67e-06    24s
  38   1.05620255e+03  1.05381702e+03  0.00e+00 1.60e-05  2.02e-06    25s
  39   1.05542777e+03  1.05390268e+03  0.00e+00 1.08e-05  1.29e-06    25s
  40   1.05498480e+03  1.05395391e+03  0.00e+00 7.11e-06  8.75e-07    26s
  41   1.05482236e+03  1.05397768e+03  0.00e+00 5.40e-06  7.16e-07    26s
  42   1.05453518e+03  1.05400259e+03  0.00e+00 3.66e-06  4.53e-07    27s
  43   1.05423060e+03  1.05403493e+03  0.00e+00 1.32e-06  1.68e-07    28s
  44   1.05416373e+03  1.05404298e+03  0.00e+00 7.71e-07  1.04e-07    28s
  45   1.05414686e+03  1.05404517e+03  0.00e+00 6.23e-07  8.73e-08    29s
  46   1.05413243e+03  1.05404926e+03  0.00e+00 3.49e-07  7.09e-08    29s
  47   1.05408083e+03  1.05405156e+03  0.00e+00 1.94e-07  2.53e-08    30s
  48   1.05406006e+03  1.05405340e+03  0.00e+00 7.64e-08  5.87e-09    31s
  49   1.05405590e+03  1.05405432e+03  0.00e+00 1.13e-08  1.38e-09    31s
  50   1.05405485e+03  1.05405442e+03  0.00e+00 4.71e-09  3.87e-10    32s
  51   1.05405453e+03  1.05405449e+03  0.00e+00 1.22e-10  3.88e-11    32s
  52   1.05405449e+03  1.05405449e+03  4.81e-12 1.33e-15  1.99e-14    33s

Barrier solved model in 52 iterations and 32.72 seconds
Optimal objective 1.05405449e+03

Crossover log...

     891 DPushes remaining with DInf 0.0000000e+00                33s
       0 DPushes remaining with DInf 0.0000000e+00                35s

    3768 PPushes remaining with PInf 0.0000000e+00                35s
       0 PPushes remaining with PInf 0.0000000e+00                35s

  Push phase complete: Pinf 0.0000000e+00, Dinf 3.9893228e-12     35s

Iteration    Objective       Primal Inf.    Dual Inf.      Time
    4507    1.0540545e+03   0.000000e+00   0.000000e+00     36s
    4507    1.0540545e+03   0.000000e+00   0.000000e+00     36s

Solved in 4507 iterations and 35.93 seconds
Optimal objective  1.054054491e+03
status: OPTIMAL
